100
32
23
17
30
17
13
6
24
25
23
24
20
3
7
28
30
13
22
12
1
28
27
8
5
3
11
21
22
8
21
23
7
17
9
16
22
20
3
23
5
6
10
28
9
20
4
22
11
22
1
12
24
21
12
16
24
22
26
7
17
23
13
27
19
12
8
21
29
22
9
10
3
19
11
18
20
15
6
25
27
31
15
14
26
18
15
20
2
1
2
13
22
10
15
5
28
15
23
21
25
15